(set-logic QF_S)
(declare-fun V16 () String )
(declare-fun V13 () String )
(declare-fun V8 () String )
(declare-fun V25 () String )
(declare-fun V24 () String )
(declare-fun V7 () String )
(declare-fun V4 () String )
(declare-fun V18 () String )
(declare-fun V6 () String )
(declare-fun V17 () String )
(declare-fun V21 () String )
(declare-fun V9 () String )
(declare-fun V27 () String )
(declare-fun V22 () String )
(declare-fun V19 () String )
(declare-fun V10 () String )
(declare-fun V5 () String )
(declare-fun V1 () String )
(declare-fun V26 () String )
(declare-fun V14 () String )
(declare-fun V12 () String )
(declare-fun V23 () String )
(declare-fun V20 () String )
(assert (= (str.++ V6 V7 ) (str.++ V4 V5 ) ) )
(assert (= (str.++ V6 V7 ) (str.++ (str.++ V20 "Z" ) V21 ) ) )
(assert (= (str.++ V6 V7 ) (str.++ (str.++ V22 "Z" ) V23 ) ) )
(assert (= (str.++ V6 V7 ) (str.++ (str.++ V26 "/" ) V27 ) ) )
(assert (= (str.++ V6 V7 ) (str.++ (str.++ V24 "/" ) V25 ) ) )
(assert (= (str.++ V6 V7 ) "localhost" ) )
(assert (= (str.++ (str.++ V18 "," ) V19 ) (str.++ (str.++ V1 V6 ) V7 ) ) )
(assert (= (str.++ (str.++ V18 "," ) V19 ) (str.++ (str.++ (str.++ V12 V13 ) V14 ) V17 ) ) )
(assert (= (str.++ (str.++ V18 "," ) V19 ) (str.++ (str.++ (str.++ V16 V8 ) V9 ) V10 ) ) )
( check-sat )
